************************************************************************
file with basedata            : cm251_.bas
initial value random generator: 391477060
************************************************************************
projects                      :  1
jobs (incl. supersource/sink ):  18
horizon                       :  106
RESOURCES
  - renewable                 :  2   R
  - nonrenewable              :  2   N
  - doubly constrained        :  0   D
************************************************************************
PROJECT INFORMATION:
pronr.  #jobs rel.date duedate tardcost  MPM-Time
    1     16      0       20        0       20
************************************************************************
PRECEDENCE RELATIONS:
jobnr.    #modes  #successors   successors
   1        1          3           2   3   4
   2        2          2          13  16
   3        2          3           5   6   7
   4        2          2           6  10
   5        2          3           9  11  14
   6        2          1          11
   7        2          1           8
   8        2          3           9  10  11
   9        2          3          12  15  16
  10        2          3          13  14  16
  11        2          2          15  17
  12        2          1          13
  13        2          1          17
  14        2          2          15  17
  15        2          1          18
  16        2          1          18
  17        2          1          18
  18        1          0        
************************************************************************
REQUESTS/DURATIONS:
jobnr. mode duration  R 1  R 2  N 1  N 2
------------------------------------------------------------------------
  1      1     0       0    0    0    0
  2      1     5       0    2    3    3
         2     9       1    0    3    2
  3      1     3       1    0    8    8
         2     8       0    4    8    3
  4      1     2       5    0    7    8
         2     8       2    0    3    6
  5      1     4       0    2    9    2
         2     7       0    2    8    2
  6      1     7       4    0    7    8
         2     9       3    0    7    5
  7      1     5      10    0    9    7
         2     6       0    6    9    7
  8      1     1       0    7    2    6
         2     7       2    0    2    6
  9      1     2       0    3    5    5
         2     5       3    0    3    4
 10      1     4       0    6    7    9
         2     8       7    0    4    9
 11      1     1       5    0    7    3
         2     9       0    8    5    3
 12      1     1       1    0    4    2
         2     2       0    5    3    2
 13      1     4       0    5    6    5
         2     7       1    0    2    4
 14      1     2       5    0   10    3
         2     5       0    2    4    1
 15      1     5       5    0    4   10
         2     7       0   10    3    7
 16      1     1       2    0    7   10
         2     2       0    9    6    9
 17      1     3       0    8    8    4
         2     7       0    7    8    4
 18      1     0       0    0    0    0
************************************************************************
RESOURCEAVAILABILITIES:
  R 1  R 2  N 1  N 2
   12   20   97   88
************************************************************************
